22
66 72 114 107 65 63
41 118 59 102 90 82
26 39 76 16 52
64 105 110 33 98 86
68 78 104 84 44 116
23 34 19 15 40
93 54 108 61 111 77
50 97 36 38 17
12 11 2 22 9
94 56 87 73 83
29 8 18 3 30
5 24 14 27 48
112 57 115 103 28 88
70 80 92 120 89 49
13 42 7 37 6
55 71 35 91 117 119
74 69 96 67 75 113
46 4 10 47 1
31 53 85 62 45
101 99 20 100 95 81
21 106 32 51 43
60 58 109 79 25
